PROBLEM NAME: eil51_n6
KNAPSACK DATA TYPE: multiple strongly correlated
DIMENSION: 6
NUMBER OF ITEMS: 25
CAPACITY OF KNAPSACK: 11920
MIN SPEED: 0.1
MAX SPEED: 1
RENTING RATIO: 23.31
EDGE_WEIGHT_TYPE: CEIL_2D
NODE_COORD_SECTION	(INDEX, X, Y):
1	31	62
2	52	41
3	27	23
4	57	58
5	62	42
6	43	67
ITEMS SECTION	(INDEX, PROFIT, WEIGHT, ASSIGNED NODE NUMBER):
1	1171	971	6
2	1103	903	6
3	1098	898	6
4	1091	891	6
5	1067	867	6
6	1008	808	4
7	1001	801	4
8	927	727	4
9	910	710	4
10	832	632	4
11	772	572	5
12	748	548	5
13	718	518	5
14	714	514	5
15	634	434	5
16	631	431	2
17	583	383	2
18	543	343	2
19	481	281	2
20	438	138	2
21	418	218	3
22	412	212	3
23	316	116	3
24	306	106	3
25	291	91	3
